D0        40        50          0
S1        70        58          0
S2        20        55          0
C1        65        85        40
C2        60        85        30
C3        23        55        20
C4        85        35        30
C5        28        52        20
C6        50        40        50
C7        15        75        20
C8        30        52        20
C9        10        40        30    
C10      15        80        10
C11      67        85        20
C12      35        30        10
C13      47        35        10
C14      88        30        10
C15        5        35        10
C16      95        35        20
C17      48        30        10
C18        0        45        20
C19      25        35        10
C20      60        80        10
F1        39        31          0
F2        90        44          0
F3        16        35          0
F4        35        45          0
